c 
c U(n,d) graph
c graph gen seed     : 16625
c number of vertices : 25
c max number of edges: 500
c Euclidean distance : 0.600000
c data structure     : dense
c
c           Graph Stats
c number of vertices  : 25
c nonisolated vertices: 25
c number of edges     : 194
c edge density        : 0.646667
c max degree          : 24
c avg degree          : 15.52
c min degree          : 6
p col 25 194
e 1 2
e 1 3
e 1 4
e 1 5
e 1 6
e 1 7
e 1 8
e 1 9
e 1 10
e 1 11
e 1 12
e 1 13
e 1 14
e 1 15
e 1 16
e 1 17
e 1 18
e 1 19
e 1 21
e 1 22
e 1 23
e 1 24
e 1 25
e 2 3
e 2 4
e 2 5
e 2 8
e 2 10
e 2 11
e 2 12
e 2 13
e 2 14
e 2 15
e 2 16
e 2 18
e 2 21
e 2 22
e 2 25
e 3 4
e 3 5
e 3 8
e 3 10
e 3 11
e 3 13
e 3 14
e 3 15
e 3 16
e 3 18
e 3 21
e 3 22
e 3 25
e 4 5
e 4 6
e 4 7
e 4 8
e 4 9
e 4 10
e 4 11
e 4 13
e 4 14
e 4 15
e 4 16
e 4 17
e 4 18
e 4 19
e 4 21
e 4 22
e 4 23
e 4 24
e 4 25
e 5 6
e 5 8
e 5 10
e 5 13
e 5 14
e 5 17
e 5 18
e 5 19
e 5 21
e 5 22
e 5 23
e 5 24
e 5 25
e 6 17
e 6 19
e 6 21
e 6 23
e 6 24
e 6 25
e 7 8
e 7 9
e 7 10
e 7 12
e 7 15
e 7 18
e 7 20
e 7 21
e 7 24
e 8 9
e 8 10
e 8 11
e 8 12
e 8 13
e 8 14
e 8 15
e 8 16
e 8 17
e 8 18
e 8 19
e 8 21
e 8 22
e 8 23
e 8 24
e 8 25
e 9 12
e 9 15
e 9 18
e 9 20
e 9 21
e 9 24
e 10 11
e 10 12
e 10 13
e 10 14
e 10 15
e 10 16
e 10 17
e 10 18
e 10 19
e 10 21
e 10 22
e 10 23
e 10 24
e 10 25
e 11 12
e 11 15
e 11 16
e 11 18
e 11 21
e 11 22
e 12 15
e 12 16
e 12 18
e 12 20
e 12 21
e 12 22
e 12 24
e 13 14
e 13 16
e 13 19
e 13 21
e 13 22
e 13 25
e 14 16
e 14 17
e 14 19
e 14 21
e 14 22
e 14 23
e 14 25
e 15 16
e 15 18
e 15 21
e 15 22
e 15 24
e 16 18
e 16 21
e 16 22
e 17 18
e 17 19
e 17 21
e 17 23
e 17 24
e 17 25
e 18 20
e 18 21
e 18 22
e 18 23
e 18 24
e 18 25
e 19 21
e 19 23
e 19 24
e 19 25
e 20 21
e 20 24
e 21 22
e 21 23
e 21 24
e 21 25
e 22 25
e 23 24
e 23 25
e 24 25
